4	143	143	0	0	0
5	144	103	0	0	0
6	236	184	0	0	0
7	279	240	0	0	0
8	267	244	0	15	15
9	261	225	0	31	31
10	385	236	0	15	15
11	438	308	0	203	203
12	377	339	0	15	15
13	541	338	0	31	31
14	551	393	0	31	31
15	675	358	0	47	47
16	560	395	0	16	16
17	656	412	0	78	78
18	634	472	0	188	188
19	875	496	0	78	78
